7
2147483647 95 41 62 92 79 31 
95 2147483647 56 31 85 67 56 
41 56 2147483647 46 57 5 100 
62 31 46 2147483647 9 82 71 
92 85 57 9 2147483647 97 29 
79 67 5 82 97 2147483647 61 
31 56 100 71 29 61 2147483647 
